job_count = 12 ;
duration = [|33, 27, 7, 6|26, 29, 7, 9|27, 18, 15, 7|35, 4, 5, 4|33, 14, 10, 7|25, 25, 7, 5|20, 26, 2, 5|26, 4, 11, 2|20, 5, 9, 1|7, 6, 12, 8|31, 8, 11, 9|16, 20, 8, 4|] ;
machine_count = 4 ;
cost = [|19, 29, 52, 75|10, 33, 54, 40|14, 31, 45, 46|17, 36, 35, 57|16, 26, 45, 55|15, 35, 35, 73|16, 25, 43, 69|11, 33, 51, 59|15, 39, 49, 50|18, 37, 31, 54|11, 36, 51, 50|11, 37, 30, 54|] ;
deadline = [25, 25, 25, 25, 25, 25, 25, 25, 25, 25, 25, 25] ;
release = [0, 0, 0, 0, 0, 0, 0, 0, 0, 0, 0, 0] ;
resource = [|7, 7, 7, 7|1, 1, 1, 1|2, 2, 2, 2|2, 2, 2, 2|3, 3, 3, 3|4, 4, 4, 4|2, 2, 2, 2|7, 7, 7, 7|9, 9, 9, 9|5, 5, 5, 5|3, 3, 3, 3|5, 5, 5, 5|] ;
capacities = [10, 10, 10, 10] ;
